db/data/145282998866653931725276391087226260.z3.out
-------------------
2500.199774223
